p wcnf 176 264 265 
1 -115 -68 0 
1 -68 -50 0 
1 -43 -81 0 
1 57 140 0 
1 118 89 0 
1 -44 -146 0 
1 -132 -135 0 
1 159 115 0 
1 53 83 0 
1 148 -122 0 
1 -109 18 0 
1 68 6 0 
1 78 106 0 
1 3 26 0 
1 26 57 0 
1 -68 -127 0 
1 -76 102 0 
1 -48 130 0 
1 -142 20 0 
1 105 -164 0 
1 -45 -103 0 
1 -33 167 0 
1 -146 -8 0 
1 -98 -32 0 
1 -48 154 0 
1 57 -172 0 
1 157 -88 0 
1 -20 -137 0 
1 87 -98 0 
1 -88 -114 0 
1 -61 69 0 
1 -19 156 0 
1 166 108 0 
1 -129 -3 0 
1 -77 110 0 
1 -113 61 0 
1 -47 -83 0 
1 77 115 0 
1 42 -136 0 
1 44 -68 0 
1 -164 130 0 
1 106 -77 0 
1 153 139 0 
1 53 170 0 
1 -112 -71 0 
1 142 77 0 
1 -122 20 0 
1 -3 44 0 
1 33 -91 0 
1 -103 -38 0 
1 81 10 0 
1 67 -157 0 
1 67 93 0 
1 149 122 0 
1 -104 10 0 
1 -151 -117 0 
1 163 -20 0 
1 152 34 0 
1 15 56 0 
1 -44 -68 0 
1 105 -69 0 
1 69 175 0 
1 -153 33 0 
1 75 -174 0 
1 51 -168 0 
1 65 7 0 
1 -137 41 0 
1 21 -171 0 
1 -53 -57 0 
1 -130 -48 0 
1 135 -145 0 
1 -160 -34 0 
1 -126 -131 0 
1 -80 10 0 
1 -150 -115 0 
1 100 172 0 
1 -127 23 0 
1 -122 -1 0 
1 13 -5 0 
1 57 -33 0 
1 -6 -71 0 
1 162 -117 0 
1 171 -23 0 
1 30 46 0 
1 -91 -134 0 
1 -7 95 0 
1 -140 143 0 
1 -82 107 0 
1 -109 160 0 
1 -25 -83 0 
1 -119 -55 0 
1 159 99 0 
1 23 74 0 
1 83 64 0 
1 148 44 0 
1 -68 171 0 
1 167 -42 0 
1 48 105 0 
1 -165 -74 0 
1 -115 -19 0 
1 -76 86 0 
1 105 -10 0 
1 122 98 0 
1 52 -164 0 
1 43 48 0 
1 9 36 0 
1 -116 20 0 
1 -140 20 0 
1 69 -141 0 
1 160 147 0 
1 141 92 0 
1 -157 5 0 
1 -97 -79 0 
1 -153 18 0 
1 13 78 0 
1 120 27 0 
1 -118 49 0 
1 152 -153 0 
1 -103 -94 0 
1 -108 147 0 
1 113 -58 0 
1 110 95 0 
1 116 -113 0 
1 108 -62 0 
1 -78 140 0 
1 157 83 0 
1 56 -18 0 
1 -174 135 0 
1 -53 -47 0 
1 112 59 0 
1 -122 44 0 
1 -125 80 0 
1 109 147 0 
1 61 -13 0 
1 -146 171 0 
1 62 -161 0 
1 77 -45 0 
1 69 97 0 
1 168 9 0 
1 51 -58 0 
1 85 -63 0 
1 -6 65 0 
1 100 -58 0 
1 -81 51 0 
1 108 -102 0 
1 84 10 0 
1 65 57 0 
1 -115 129 0 
1 -38 -49 0 
1 -94 152 0 
1 -97 36 0 
1 73 67 0 
1 -150 -165 0 
1 -95 -100 0 
1 -82 -57 0 
1 -116 -165 0 
1 -93 -84 0 
1 -44 -61 0 
1 19 39 0 
1 100 154 0 
1 -120 -150 0 
1 -26 -171 0 
1 -77 -27 0 
1 108 -138 0 
1 66 53 0 
1 82 -60 0 
1 -24 -60 0 
1 -147 -138 0 
1 -15 -42 0 
1 91 -71 0 
1 -4 -123 0 
1 -98 -58 0 
1 -26 -140 0 
1 -141 42 0 
1 -75 -106 0 
1 144 171 0 
1 168 -24 0 
1 39 -156 0 
1 -34 138 0 
1 165 172 0 
1 72 -35 0 
1 -21 -129 0 
1 -167 -169 0 
1 24 -102 0 
1 121 -136 0 
1 -81 51 0 
1 -99 -34 0 
1 68 -117 0 
1 161 -89 0 
1 96 -74 0 
1 62 11 0 
1 79 -34 0 
1 16 -72 0 
1 127 -85 0 
1 48 50 0 
1 -131 80 0 
1 -134 112 0 
1 105 -100 0 
1 -141 81 0 
1 -93 -55 0 
1 23 -163 0 
1 -60 -71 0 
1 143 -19 0 
1 -161 -23 0 
1 148 142 0 
1 133 -144 0 
1 -9 -69 0 
1 -81 -84 0 
1 105 -28 0 
1 -19 122 0 
1 -18 -133 0 
1 77 134 0 
1 26 -141 0 
1 -63 79 0 
1 20 50 0 
1 -57 -158 0 
1 143 -20 0 
1 -138 -152 0 
1 -138 41 0 
1 -168 -176 0 
1 -23 -97 0 
1 -4 -170 0 
1 94 -108 0 
1 -19 38 0 
1 -175 141 0 
1 -54 -90 0 
1 -122 -4 0 
1 63 93 0 
1 -31 -125 0 
1 -35 -56 0 
1 48 -87 0 
1 41 28 0 
1 16 120 0 
1 82 -88 0 
1 -121 -1 0 
1 111 133 0 
1 -33 -159 0 
1 -5 -44 0 
1 167 89 0 
1 -28 131 0 
1 140 166 0 
1 -20 70 0 
1 -117 158 0 
1 -111 129 0 
1 72 93 0 
1 5 109 0 
1 -147 -146 0 
1 -107 -18 0 
1 144 115 0 
1 93 61 0 
1 -46 19 0 
1 -146 117 0 
1 -176 20 0 
1 -142 93 0 
1 -106 96 0 
1 118 -160 0 
1 -135 72 0 
1 -170 -55 0 
1 -174 -87 0 
1 -119 -151 0 
1 130 -129 0 
1 23 69 0 
1 37 98 0 
1 -90 -173 0 
